%%% static parameters %%%
timespan = 1;
Fact = [1];
Distr1 = [15];
Distr2 = [20];
Clients_N = [100];
Demand_W = [15];
Lt0 = [4];
Lt1 = [4];
SS_ = [0.85];
DS_D = [20];
K = [200];
MA = [500];
%%% dynamic parameters %%%
lost_ratio_sales_ret_th = 0.009196388030834;
lost_ratio_sales_ret_w = 95;
lost_ratio_sales_dis_th = 0.009768924746316915;
lost_ratio_sales_dis_w = 55;
lost_ratio_sales_fac_th = 0.006316743267271414;
lost_ratio_sales_fac_w = 17;
stock_customer_MA_mean_relative_th = 0.34166774241562603;
stock_customer_MA_mean_relative_w = 52;
stock_distributor_MA_mean_relative_th = 0.6788039691106312;
stock_distributor_MA_mean_relative_w = 24;
stock_retailer_MA_mean_relative_th = 0.8191627883098268;
stock_retailer_MA_mean_relative_w = 18;
stock_factory_MA_mean_relative_th = 0.7683317181782033;
stock_factory_MA_mean_relative_w = 93;
